(set-info :smt-lib-version 2.6)
(set-logic QF_BV)
(set-info :source |
 Patrice Godefroid, SAGE (systematic dynamic test generation)
 For more information: http://research.microsoft.com/en-us/um/people/pg/public_psfiles/ndss2008.pdf
|)
(set-info :category "industrial")
(set-info :status sat)
(declare-fun T1_4914 () (_ BitVec 8))
(declare-fun T1_4892 () (_ BitVec 8))
(declare-fun T1_4876 () (_ BitVec 8))
(declare-fun T1_4860 () (_ BitVec 8))
(declare-fun T1_4844 () (_ BitVec 8))
(declare-fun T1_4840 () (_ BitVec 8))
(declare-fun T2_4448 () (_ BitVec 16))
(declare-fun T1_4439 () (_ BitVec 8))
(declare-fun T2_4842 () (_ BitVec 16))
(declare-fun T4_4440 () (_ BitVec 32))
(declare-fun T1_4842 () (_ BitVec 8))
(declare-fun T1_4843 () (_ BitVec 8))
(declare-fun T1_4448 () (_ BitVec 8))
(declare-fun T1_4449 () (_ BitVec 8))
(declare-fun T1_4440 () (_ BitVec 8))
(declare-fun T1_4441 () (_ BitVec 8))
(declare-fun T1_4442 () (_ BitVec 8))
(declare-fun T1_4443 () (_ BitVec 8))
(assert (let ((?v_42 ((_ zero_extend 24) T1_4914)) (?v_37 ((_ zero_extend 24) T1_4892)) (?v_0 ((_ zero_extend 24) (_ bv1 8))) (?v_30 ((_ zero_extend 24) T1_4876)) (?v_21 ((_ zero_extend 24) T1_4860)) (?v_12 ((_ zero_extend 24) T1_4844)) (?v_9 ((_ zero_extend 24) T1_4840)) (?v_5 ((_ zero_extend 16) T2_4448)) (?v_2 ((_ zero_extend 24) T1_4439))) (let ((?v_3 (bvsub ?v_2 (_ bv8 32)))) (let ((?v_6 (bvadd (bvadd ?v_3 (_ bv1580263 32)) ?v_5))) (let ((?v_10 (bvadd (bvadd ?v_6 (_ bv7 32)) ?v_9))) (let ((?v_19 (bvadd (bvadd ?v_10 (_ bv3 32)) ?v_12))) (let ((?v_28 (bvadd (bvadd ?v_19 ?v_0) ?v_21))) (let ((?v_35 (bvadd (bvadd ?v_28 ?v_0) ?v_30))) (let ((?v_1 (bvsub (bvadd (bvadd ?v_35 ?v_0) ?v_37) (_ bv1580231 32)))) (let ((?v_45 (bvadd ?v_1 (_ bv1580232 32)))) (let ((?v_46 (bvsub (bvadd ?v_45 ?v_42) (_ bv1 32))) (?v_16 ((_ zero_extend 16) T2_4842))) (let ((?v_27 (bvadd ?v_16 (bvsub (_ bv4294967295 32) ?v_12)))) (let ((?v_34 (bvadd ?v_27 (bvsub (_ bv4294967295 32) ?v_21)))) (let ((?v_41 (bvadd ?v_34 (bvsub (_ bv4294967295 32) ?v_30)))) (let ((?v_43 (bvadd ?v_41 (bvsub (_ bv4294967295 32) ?v_37))) (?v_36 (bvsub ?v_35 (_ bv1580231 32)))) (let ((?v_44 (bvadd ?v_36 (_ bv1580232 32)))) (let ((?v_38 (bvsub (bvadd ?v_44 ?v_37) (_ bv1 32))) (?v_40 (bvadd ?v_36 (_ bv1580252 32))) (?v_39 (bvadd ?v_36 (_ bv1580253 32))) (?v_29 (bvsub ?v_28 (_ bv1580231 32)))) (let ((?v_33 (bvadd ?v_29 (_ bv1580232 32)))) (let ((?v_31 (bvsub (bvadd ?v_33 ?v_30) (_ bv1 32))) (?v_32 (bvadd ?v_29 (_ bv1580246 32))) (?v_20 (bvsub ?v_19 (_ bv1580231 32)))) (let ((?v_26 (bvadd ?v_20 (_ bv1580232 32))) (?v_4 (bvadd ?v_2 (_ bv1 32)))) (let ((?v_7 (bvadd (bvadd ?v_4 (_ bv1580254 32)) ?v_5))) (let ((?v_8 (bvadd ?v_7 (_ bv6 32)))) (let ((?v_15 (bvadd ?v_8 (bvadd ?v_9 (_ bv1 32))))) (let ((?v_17 (bvadd ?v_15 (_ bv2 32)))) (let ((?v_25 (bvadd ?v_17 ?v_12)) (?v_22 (bvsub (bvadd ?v_26 ?v_21) (_ bv1 32))) (?v_24 (bvadd ?v_20 (_ bv1580246 32))) (?v_23 (bvadd ?v_20 (_ bv1580247 32))) (?v_11 (bvsub ?v_10 (_ bv1580229 32)))) (let ((?v_18 (bvadd ?v_11 (_ bv1580232 32)))) (let ((?v_13 (bvsub (bvadd ?v_18 ?v_12) (_ bv1 32))) (?v_14 (bvadd ?v_11 (_ bv1580246 32)))) (and true (= T4_4440 (bvor (bvshl (bvor (bvshl (bvor (bvshl ((_ zero_extend 24) T1_4443) (_ bv8 32)) ((_ zero_extend 24) T1_4442)) (_ bv8 32)) ((_ zero_extend 24) T1_4441)) (_ bv8 32)) ((_ zero_extend 24) T1_4440))) (= T2_4448 (bvor (bvshl ((_ zero_extend 8) T1_4449) (_ bv8 16)) ((_ zero_extend 8) T1_4448))) (= T2_4842 (bvor (bvshl ((_ zero_extend 8) T1_4843) (_ bv8 16)) ((_ zero_extend 8) T1_4842))) (bvule ?v_46 (bvadd ?v_1 (_ bv1580256 32))) (bvule (bvadd (bvadd ?v_4 (_ bv1580252 32)) (_ bv2 32)) (_ bv1581078 32)) (not (= (bvadd (bvadd ?v_3 (_ bv31 32)) (_ bv1580232 32)) (_ bv0 32))) (bvule (_ bv8 32) ?v_2) (not (= ?v_2 (_ bv1 32))) (bvule ?v_3 (_ bv0 32)) (bvule (bvsub ?v_7 (_ bv1580232 32)) (_ bv846 32)) (bvule (bvsub ?v_6 (_ bv1580232 32)) (_ bv846 32)) (bvult (_ bv0 32) ?v_5) (not (= ?v_5 (_ bv0 32))) (= T4_4440 ?v_5) (bvule (bvadd ?v_8 (_ bv1 32)) (_ bv1581078 32)) (bvule (bvadd ?v_15 (_ bv3 32)) (_ bv1581078 32)) (not (= (bvadd ?v_11 (_ bv1580247 32)) ?v_13)) (= ?v_14 ?v_13) (bvule ?v_13 ?v_14) (bvult (bvadd ?v_11 (_ bv1580244 32)) ?v_13) (bvult (bvadd ?v_11 (_ bv1580238 32)) ?v_13) (bvult ?v_9 (_ bv8 32)) (not (= ?v_9 (_ bv0 32))) (= ?v_9 (_ bv1 32)) (bvule (bvsub (bvadd (bvadd ?v_10 (_ bv2 32)) ?v_16) (_ bv1580232 32)) (_ bv846 32)) (bvule (bvsub (bvadd ?v_17 ?v_16) (_ bv1580232 32)) (_ bv846 32)) (bvule (bvadd ?v_25 (_ bv2 32)) (_ bv1581078 32)) (not (= ?v_18 (_ bv0 32))) (bvule ?v_17 (_ bv1581078 32)) (not (= ?v_23 ?v_22)) (bvule ?v_22 ?v_23) (= ?v_24 ?v_22) (bvule ?v_22 ?v_24) (bvule (bvadd (bvadd (bvadd ?v_25 (_ bv1 32)) ?v_21) (_ bv2 32)) (_ bv1581078 32)) (not (= ?v_12 (_ bv0 32))) (bvule (bvadd ?v_12 (_ bv1 32)) ?v_16) (not (= ?v_16 (_ bv0 32))) (not (= ?v_26 (_ bv0 32))) (bvule (bvadd ?v_21 (_ bv1 32)) ?v_27) (not (= ?v_27 (_ bv0 32))) (not (= (bvadd ?v_29 (_ bv1580247 32)) ?v_31)) (= ?v_32 ?v_31) (bvule ?v_31 ?v_32) (bvult (bvadd ?v_29 (_ bv1580244 32)) ?v_31) (bvult (bvadd ?v_29 (_ bv1580240 32)) ?v_31) (not (= ?v_21 (_ bv0 32))) (not (= ?v_34 (_ bv0 32))) (not (= ?v_33 (_ bv0 32))) (bvule (bvadd ?v_30 (_ bv1 32)) ?v_34) (not (= ?v_39 ?v_38)) (bvule ?v_38 ?v_39) (= ?v_40 ?v_38) (bvule ?v_38 ?v_40) (bvult (bvadd ?v_36 (_ bv1580248 32)) ?v_38) (bvult (bvadd ?v_36 (_ bv1580246 32)) ?v_38) (bvult (bvadd ?v_36 (_ bv1580242 32)) ?v_38) (not (= ?v_41 (_ bv0 32))) (not (= ?v_30 (_ bv0 32))) (= (bvadd ?v_43 (bvsub (_ bv4294967295 32) ?v_42)) (_ bv0 32)) (not (= ?v_43 (_ bv0 32))) (not (= ?v_44 (_ bv0 32))) (bvule (bvadd ?v_37 (_ bv1 32)) ?v_41) (bvule (bvadd ?v_42 (_ bv1 32)) ?v_43) (not (= ?v_45 (_ bv0 32))) (bvult (bvadd ?v_1 (_ bv1580252 32)) ?v_46) (bvult (bvadd ?v_1 (_ bv1580250 32)) ?v_46) (bvult (bvadd ?v_1 (_ bv1580248 32)) ?v_46)))))))))))))))))))))))))))))
(check-sat)
(exit)
